c Graph
c
p edge 100 499
e 5 4
e 8 3
e 8 4
e 8 5
e 10 3
e 11 3
e 12 1
e 14 2
e 14 9
e 15 10
e 16 4
e 17 14
e 18 11
e 19 7
e 19 9
e 19 10
e 20 3
e 20 7
e 20 12
e 21 16
e 21 13
e 22 7
e 22 13
e 24 16
e 24 3
e 24 6
e 24 7
e 25 7
e 25 10
e 26 18
e 26 7
e 26 8
e 26 9
e 27 18
e 27 22
e 28 13
e 30 23
e 30 13
e 31 3
e 31 6
e 31 15
e 32 2
e 32 4
e 32 11
e 32 18
e 32 20
e 32 24
e 33 16
e 34 6
e 34 28
e 35 5
e 35 7
e 35 26
e 35 11
e 35 15
e 36 16
e 36 24
e 37 34
e 37 3
e 37 10
e 37 15
e 38 34
e 38 26
e 38 12
e 38 14
e 39 33
e 39 2
e 39 4
e 39 8
e 39 15
e 39 18
e 39 19
e 39 28
e 40 29
e 40 13
e 40 30
e 40 15
e 41 17
e 41 1
e 41 19
e 41 10
e 41 27
e 41 14
e 42 37
e 42 21
e 42 5
e 42 7
e 43 34
e 43 18
e 43 19
e 43 20
e 43 23
e 43 9
e 43 12
e 44 16
e 44 2
e 44 3
e 44 30
e 45 1
e 45 21
e 45 38
e 45 14
e 46 32
e 46 17
e 46 13
e 47 18
e 47 9
e 48 39
e 48 27
e 49 48
e 49 16
e 49 44
e 49 30
e 50 19
e 50 5
e 50 38
e 50 41
e 50 15
e 51 20
e 51 22
e 51 6
e 52 20
e 52 22
e 52 6
e 52 23
e 52 8
e 52 43
e 52 15
e 53 32
e 53 3
e 53 52
e 53 5
e 53 38
e 53 23
e 54 10
e 54 11
e 54 19
e 54 53
e 54 23
e 54 27
e 55 5
e 55 27
e 55 44
e 56 42
e 56 13
e 56 16
e 56 49
e 56 51
e 56 53
e 56 23
e 56 25
e 56 29
e 56 30
e 57 35
e 57 22
e 57 25
e 57 42
e 58 3
e 58 39
e 58 10
e 58 48
e 58 56
e 59 3
e 59 41
e 59 42
e 59 43
e 59 45
e 59 54
e 59 55
e 59 57
e 59 58
e 60 1
e 60 34
e 60 46
e 60 15
e 60 55
e 60 28
e 61 33
e 61 5
e 61 24
e 61 31
e 62 18
e 62 51
e 62 53
e 62 39
e 62 9
e 62 59
e 62 29
e 62 13
e 62 14
e 63 34
e 63 3
e 63 35
e 63 39
e 63 10
e 63 44
e 63 13
e 63 50
e 63 55
e 63 28
e 64 19
e 64 52
e 64 55
e 64 56
e 64 11
e 64 30
e 65 16
e 65 34
e 65 19
e 65 25
e 65 9
e 65 28
e 65 13
e 65 63
e 66 64
e 66 2
e 66 35
e 66 46
e 66 48
e 66 19
e 66 56
e 66 29
e 67 34
e 67 54
e 67 61
e 68 5
e 68 38
e 68 27
e 68 28
e 68 45
e 68 63
e 69 65
e 69 2
e 69 18
e 69 21
e 69 23
e 69 25
e 69 60
e 70 1
e 70 33
e 70 10
e 70 45
e 70 15
e 70 19
e 70 22
e 70 54
e 70 58
e 71 64
e 71 33
e 71 66
e 71 67
e 71 60
e 72 32
e 72 19
e 72 36
e 72 38
e 72 43
e 72 60
e 73 48
e 73 66
e 73 50
e 73 2
e 73 20
e 73 38
e 73 7
e 73 25
e 74 33
e 74 66
e 74 35
e 74 5
e 74 70
e 74 71
e 74 72
e 74 20
e 74 54
e 74 58
e 74 59
e 74 61
e 75 16
e 75 50
e 75 18
e 75 69
e 75 22
e 75 47
e 76 32
e 76 34
e 76 67
e 76 4
e 76 5
e 76 54
e 76 39
e 76 72
e 76 24
e 76 8
e 76 60
e 77 17
e 77 69
e 77 21
e 77 5
e 77 23
e 77 9
e 77 30
e 78 33
e 78 18
e 78 21
e 78 38
e 78 58
e 78 29
e 78 13
e 79 3
e 79 69
e 79 6
e 79 58
e 79 11
e 79 12
e 79 62
e 79 46
e 79 47
e 80 33
e 80 69
e 80 70
e 80 39
e 80 72
e 80 44
e 80 14
e 80 15
e 81 69
e 81 53
e 81 25
e 81 9
e 81 75
e 82 32
e 82 33
e 82 17
e 82 35
e 82 54
e 82 7
e 82 60
e 82 78
e 82 31
e 83 32
e 83 1
e 83 3
e 83 35
e 83 5
e 83 70
e 83 8
e 83 42
e 83 75
e 83 16
e 83 19
e 83 60
e 84 64
e 84 65
e 84 1
e 84 18
e 84 2
e 84 83
e 84 67
e 84 28
e 84 78
e 85 22
e 85 59
e 85 44
e 85 28
e 85 47
e 86 81
e 86 71
e 86 27
e 87 66
e 87 4
e 87 5
e 87 24
e 87 44
e 88 48
e 88 17
e 88 52
e 88 53
e 88 55
e 88 74
e 88 75
e 88 12
e 89 33
e 89 54
e 89 72
e 89 74
e 89 58
e 89 10
e 89 75
e 89 12
e 89 45
e 90 80
e 90 49
e 90 53
e 90 86
e 90 55
e 90 56
e 90 75
e 90 28
e 91 69
e 91 70
e 91 78
e 91 16
e 91 52
e 91 85
e 91 54
e 91 87
e 91 88
e 91 60
e 91 61
e 92 48
e 92 81
e 92 49
e 92 82
e 92 2
e 92 37
e 92 12
e 92 15
e 93 70
e 93 72
e 93 43
e 93 77
e 93 84
e 93 85
e 93 24
e 93 26
e 93 58
e 93 90
e 93 61
e 93 31
e 93 63
e 94 17
e 94 50
e 94 69
e 94 37
e 94 8
e 94 73
e 94 92
e 94 28
e 94 31
e 95 68
e 95 36
e 95 4
e 95 21
e 95 38
e 95 23
e 95 56
e 95 24
e 95 26
e 95 61
e 95 13
e 96 86
e 96 6
e 96 8
e 96 58
e 96 91
e 96 92
e 96 29
e 96 62
e 97 1
e 97 66
e 97 4
e 97 55
e 97 63
e 97 31
e 97 15
e 98 32
e 98 83
e 98 85
e 98 70
e 98 8
e 98 89
e 98 13
e 99 32
e 99 67
e 99 97
e 99 4
e 99 70
e 99 7
e 99 10
e 99 52
e 99 84
e 99 25
e 99 89
e 99 27
e 99 59
e 99 61
e 100 16
e 100 65
e 100 49
e 100 34
e 100 54
e 100 6
e 100 71
e 100 91
e 100 12
e 100 13
e 100 62
e 100 47
